1196.33 0
0 73 74 76 62 54 57 77 34 63 79 67 68 128 127 132 81 133 78 32 0
0 64 69 70 48 49 50 12 10 9 8 7 6 5 4 38 96 95 42 11 13 15 14 88 16 89 90 92 28 26 25 91 0
0 47 75 1 101 102 55 52 104 53 56 59 24 21 130 65 83 20 82 0
0 112 111 110 122 123 116 131 115 114 119 18 72 60 2 39 0
0 46 66 33 80 125 129 113 71 0
0 17 126 124 121 120 109 108 107 106 19 118 0
0 117 134 103 61 58 35 36 43 44 45 40 3 41 37 99 98 100 51 97 105 29 94 93 30 31 23 22 27 87 84 85 86 0